NAME : portcgen-27-3
COMMENT : portcgen N=27, seed=3
TYPE : TSP
DIMENSION : 27
EDGE_WEIGHT_TYPE : EUC_2D
NODE_COORD_SECTION
1 248148 114285
2 -85530 -204519
3 -127121 289569
4 -102084 315543
5 -200751 18405
6 99190 -237204
7 -25001 -259780
8 175832 200709
9 -164062 -261753
10 69311 -176882
11 -165197 -27827
12 154727 285582
13 63871 -23629
14 -272008 -301668
15 -51944 112820
16 105007 67636
17 490325 337053
18 21252 58390
19 116483 102547
20 -340151 -42015
21 -168215 234709
22 -82686 105380
23 -9824 -80481
24 8625 79319
25 46922 338498
26 224825 -208912
27 205225 -92287
